(set-logic HORN)
; KVARS

(declare-fun k_97 (Int Int Int Int Int Int) Bool)

(declare-fun k_95 (Int Int Int Int Int) Bool)

(declare-fun k_91 (Int Int Int Int Int Int) Bool)

(declare-fun k_89 (Int Int Int Int Int Int Int) Bool)

(declare-fun k_87 (Int Int Int Int Int) Bool)

(declare-fun k_85 (Int Int Int Int Int Int) Bool)

(declare-fun k_83 (Int Int Int Int Int Int) Bool)

(declare-fun k_81 (Int Int Int Int Int) Bool)

(declare-fun k_78 (Int Int Int Int Int Int) Bool)

(declare-fun k_76 (Int Int Int Int Int Int Int) Bool)

(declare-fun k_74 (Int Int Int Int Int) Bool)

(declare-fun k_72 (Int Int Int Int Int Int) Bool)

(declare-fun k_69 (Int Int Int Int Int Int) Bool)

(declare-fun k_67 (Int Int Int Int Int) Bool)

(declare-fun k_62 (Int Int Int Int Int Int Int Int) Bool)

(declare-fun k_59 (Int Int Int Int Int Int Int) Bool)

(declare-fun k_57 (Int Int Int Int Int Int Int) Bool)

(declare-fun k_55 (Int Int Int Int Int Int Int Int) Bool)

(declare-fun k_52 (Int Int Int Int Int Int) Bool)

(declare-fun k_49 (Int Int Int Int Int) Bool)

(declare-fun k_220 (Int Int Int Int Int Int Int Int Int) Bool)

(declare-fun k_218 (Int Int Int Int Int Int Int Int Int) Bool)

(declare-fun k_213 (Int Int Int Int Int Int Int) Bool)

(declare-fun k_211 (Int Int Int Int Int Int Int) Bool)

(declare-fun k_209 (Int Int Int Int Int Int Int) Bool)

(declare-fun k_206 (Int Int Int Int Int Int Int) Bool)

(declare-fun k_203 (Int Int Int Int Int Int) Bool)

(declare-fun k_201 (Int Int Int Int Int Int Int) Bool)

(declare-fun k_198 (Int Int Int Int Int) Bool)

(declare-fun k_192 (Int Int Int Int Int Int Int Int) Bool)

(declare-fun k_189 (Int Int Int Int Int Int Int) Bool)

(declare-fun k_187 (Int Int Int Int Int Int Int Int) Bool)

(declare-fun k_183 (Int Int Int Int Int Int) Bool)

(declare-fun k_180 (Int Int Int Int Int) Bool)

(declare-fun k_178 (Int Int Int Int Int Int) Bool)

(declare-fun k_172 (Int Int Int Int Int Int Int Int) Bool)

(declare-fun k_170 (Int Int Int Int Int Int Int Int Int) Bool)

(declare-fun k_167 (Int Int Int Int Int Int Int) Bool)

(declare-fun k_165 (Int Int Int Int Int Int Int Int) Bool)

(declare-fun k_161 (Int Int Int Int Int Int) Bool)

(declare-fun k_159 (Int Int Int Int Int Int Int) Bool)

(declare-fun k_156 (Int Int Int Int Int) Bool)

(declare-fun k_154 (Int Int Int Int Int Int) Bool)

(declare-fun k_149 (Int Int Int Int Int Int Int) Bool)

(declare-fun k_146 (Int Int Int Int Int Int) Bool)

(declare-fun k_142 (Int Int Int Int Int) Bool)

(declare-fun k_140 (Int Int Int Int Int) Bool)

(declare-fun k_138 (Int Int Int Int Int Int Int Int Int Int Int) Bool)

(declare-fun k_135 (Int Int Int Int Int Int Int Int Int Int) Bool)

(declare-fun k_133 (Int Int Int Int Int Int Int Int Int Int) Bool)

(declare-fun k_127 (Int Int Int Int Int Int Int) Bool)

(declare-fun k_123 (Int Int Int Int Int Int) Bool)

(declare-fun k_121 (Int Int Int Int Int Int Int) Bool)

(declare-fun k_118 (Int Int Int Int Int) Bool)

(declare-fun k_116 (Int Int Int Int Int Int) Bool)

(declare-fun k_113 (Int Int Int Int Int Int) Bool)

(declare-fun k_111 (Int Int Int Int Int) Bool)

(declare-fun k_106 (Int Int Int Int Int Int) Bool)

(declare-fun k_104 (Int Int Int Int Int Int Int) Bool)

(declare-fun k_102 (Int Int Int Int Int) Bool)

(declare-fun k_100 (Int Int Int Int Int Int) Bool)

; CONSTRAINTS

; cid = 57
(assert (forall ((EQ_6U Int) 
(GT_6W Int) (LT_6S Int) (VV_F57 Int) (cmp (Array Int Int)) (i_aEW Int) 
(j_aEX Int) (lq_anf__dFU Int) 
(realWorld__0f Int)) 
 (=> (and (k_49 EQ_6U GT_6W LT_6S i_aEW realWorld__0f) (and (k_52 EQ_6U GT_6W LT_6S j_aEX i_aEW realWorld__0f) (and (= (select cmp EQ_6U) EQ_6U) (and (= (select cmp GT_6W) GT_6W) (and (= (select cmp LT_6S) LT_6S) (and (k_49 EQ_6U GT_6W LT_6S VV_F57 realWorld__0f) (and (= VV_F57 i_aEW) true))))))) (k_62 EQ_6U GT_6W LT_6S VV_F57 i_aEW j_aEX lq_anf__dFU realWorld__0f)))
)


; cid = 56
(assert (forall ((EQ_6U Int) (GT_6W Int) (LT_6S Int) 
(VV_307 Int) (VV_F56 Int) (cmp (Array Int Int)) (i_aEW Int) (j_aEX Int) 
(lq_anf__dFU Int) 
(realWorld__0f Int)) 
 (=> (and (k_49 EQ_6U GT_6W LT_6S i_aEW realWorld__0f) (and (k_52 EQ_6U GT_6W LT_6S j_aEX i_aEW realWorld__0f) (and (= (select cmp EQ_6U) EQ_6U) (and (= (select cmp GT_6W) GT_6W) (and (= (select cmp LT_6S) LT_6S) (and (= VV_307 lq_anf__dFU) (and (k_59 EQ_6U GT_6W LT_6S VV_F56 i_aEW j_aEX realWorld__0f) true))))))) (k_62 EQ_6U GT_6W LT_6S VV_F56 i_aEW j_aEX lq_anf__dFU realWorld__0f)))
)


; cid = 55
(assert (forall ((EQ_6U Int) (GT_6W Int) (LT_6S Int) 
(VV_303 Int) (VV_F55 Int) (cmp (Array Int Int)) (i_aEW Int) (j_aEX Int) 
(lq_anf__dFU Int) 
(realWorld__0f Int)) 
 (=> (and (k_49 EQ_6U GT_6W LT_6S i_aEW realWorld__0f) (and (k_52 EQ_6U GT_6W LT_6S j_aEX i_aEW realWorld__0f) (and (= (select cmp EQ_6U) EQ_6U) (and (= (select cmp GT_6W) GT_6W) (and (= (select cmp LT_6S) LT_6S) (and (k_62 EQ_6U GT_6W LT_6S VV_F55 i_aEW j_aEX lq_anf__dFU realWorld__0f) true)))))) (k_55 EQ_6U GT_6W LT_6S VV_F55 VV_303 i_aEW j_aEX realWorld__0f)))
)


; cid = 54
(assert (forall ((EQ_6U Int) (GT_6W Int) (LT_6S Int) 
(VV_F54 Int) (cmp (Array Int Int)) (i_aEW Int) (j_aEX Int) 
(realWorld__0f Int)) 
 (=> (and (k_49 EQ_6U GT_6W LT_6S i_aEW realWorld__0f) (and (k_52 EQ_6U GT_6W LT_6S j_aEX i_aEW realWorld__0f) (and (= (select cmp EQ_6U) EQ_6U) (and (= (select cmp GT_6W) GT_6W) (and (= (select cmp LT_6S) LT_6S) true))))) (k_57 EQ_6U GT_6W LT_6S VV_F54 i_aEW j_aEX realWorld__0f)))
)


; cid = 51
(assert (forall ((C_ryA (Array Int (Array Int Int))) (EQ_6U Int) 
(GT_6W Int) (LT_6S Int) (VV_F51 Int) (cmp (Array Int Int)) (ds_dFF Int) 
(jhala_aEU Int) (jhalas_aEV Int) (lq_anf__dFV Int) 
(realWorld__0f Int)) 
 (=> (and (k_118 EQ_6U GT_6W LT_6S ds_dFF realWorld__0f) (and (k_116 EQ_6U GT_6W LT_6S jhala_aEU lq_anf__dFV realWorld__0f) (and (k_118 EQ_6U GT_6W LT_6S lq_anf__dFV realWorld__0f) (and (= (select cmp EQ_6U) EQ_6U) (and (= (select cmp GT_6W) GT_6W) (and (= (select cmp LT_6S) LT_6S) (and (= lq_anf__dFV ds_dFF) (and (= lq_anf__dFV (select (select C_ryA jhala_aEU) jhalas_aEV)) (and (k_116 EQ_6U GT_6W LT_6S VV_F51 lq_anf__dFV realWorld__0f) (and (= VV_F51 jhala_aEU) true)))))))))) (k_111 EQ_6U GT_6W LT_6S VV_F51 realWorld__0f)))
)


; cid = 50
(assert (forall ((C_ryA (Array Int (Array Int Int))) (EQ_6U Int) 
(GT_6W Int) (LT_6S Int) (VV_F50 Int) (cmp (Array Int Int)) (ds_dFF Int) 
(jhala_aEU Int) (jhalas_aEV Int) (lq_anf__dFV Int) (lq_anf__dFW Int) 
(lq_tmp_x79 Int) 
(realWorld__0f Int)) 
 (=> (and (k_118 EQ_6U GT_6W LT_6S ds_dFF realWorld__0f) (and (k_116 EQ_6U GT_6W LT_6S jhala_aEU lq_anf__dFV realWorld__0f) (and (k_118 EQ_6U GT_6W LT_6S lq_anf__dFV realWorld__0f) (and (k_113 EQ_6U GT_6W LT_6S lq_anf__dFW jhala_aEU realWorld__0f) (and (k_133 EQ_6U GT_6W LT_6S lq_tmp_x79 ds_dFF jhala_aEU jhalas_aEV lq_anf__dFV lq_anf__dFW realWorld__0f) (and (k_81 EQ_6U GT_6W LT_6S lq_tmp_x79 realWorld__0f) (and (= (select cmp EQ_6U) EQ_6U) (and (= (select cmp GT_6W) GT_6W) (and (= (select cmp LT_6S) LT_6S) (and (= lq_anf__dFV ds_dFF) (and (= lq_anf__dFV (select (select C_ryA jhala_aEU) jhalas_aEV)) (and (k_113 EQ_6U GT_6W LT_6S VV_F50 lq_tmp_x79 realWorld__0f) true)))))))))))) (k_83 EQ_6U GT_6W LT_6S VV_F50 lq_tmp_x79 realWorld__0f)))
)


; cid = 50
(assert (forall ((C_ryA (Array Int (Array Int Int))) (EQ_6U Int) 
(GT_6W Int) (LT_6S Int) (VV_F50 Int) (cmp (Array Int Int)) (ds_dFF Int) 
(jhala_aEU Int) (jhalas_aEV Int) (lq_anf__dFV Int) (lq_anf__dFW Int) 
(lq_tmp_x79 Int) 
(realWorld__0f Int)) 
 (=> (and (k_118 EQ_6U GT_6W LT_6S ds_dFF realWorld__0f) (and (k_116 EQ_6U GT_6W LT_6S jhala_aEU lq_anf__dFV realWorld__0f) (and (k_118 EQ_6U GT_6W LT_6S lq_anf__dFV realWorld__0f) (and (k_113 EQ_6U GT_6W LT_6S lq_anf__dFW jhala_aEU realWorld__0f) (and (k_133 EQ_6U GT_6W LT_6S lq_tmp_x79 ds_dFF jhala_aEU jhalas_aEV lq_anf__dFV lq_anf__dFW realWorld__0f) (and (k_81 EQ_6U GT_6W LT_6S lq_tmp_x79 realWorld__0f) (and (= (select cmp EQ_6U) EQ_6U) (and (= (select cmp GT_6W) GT_6W) (and (= (select cmp LT_6S) LT_6S) (and (= lq_anf__dFV ds_dFF) (and (= lq_anf__dFV (select (select C_ryA jhala_aEU) jhalas_aEV)) (and (k_113 EQ_6U GT_6W LT_6S VV_F50 lq_tmp_x79 realWorld__0f) true)))))))))))) (k_135 EQ_6U GT_6W LT_6S VV_F50 ds_dFF jhala_aEU jhalas_aEV lq_anf__dFV lq_anf__dFW realWorld__0f)))
)


; cid = 49
(assert (forall ((C_ryA (Array Int (Array Int Int))) (EQ_6U Int) 
(GT_6W Int) (LT_6S Int) (VV_F49 Int) (cmp (Array Int Int)) (ds_dFF Int) 
(jhala_aEU Int) (jhalas_aEV Int) (lq_anf__dFV Int) (lq_anf__dFW Int) 
(realWorld__0f Int)) 
 (=> (and (k_118 EQ_6U GT_6W LT_6S ds_dFF realWorld__0f) (and (k_116 EQ_6U GT_6W LT_6S jhala_aEU lq_anf__dFV realWorld__0f) (and (k_118 EQ_6U GT_6W LT_6S lq_anf__dFV realWorld__0f) (and (k_113 EQ_6U GT_6W LT_6S lq_anf__dFW jhala_aEU realWorld__0f) (and (= (select cmp EQ_6U) EQ_6U) (and (= (select cmp GT_6W) GT_6W) (and (= (select cmp LT_6S) LT_6S) (and (= lq_anf__dFV ds_dFF) (and (= lq_anf__dFV (select (select C_ryA jhala_aEU) jhalas_aEV)) (and (k_133 EQ_6U GT_6W LT_6S VV_F49 ds_dFF jhala_aEU jhalas_aEV lq_anf__dFV lq_anf__dFW realWorld__0f) (and (k_81 EQ_6U GT_6W LT_6S VV_F49 realWorld__0f) true))))))))))) (k_111 EQ_6U GT_6W LT_6S VV_F49 realWorld__0f)))
)


; cid = 48
(assert (forall ((C_ryA (Array Int (Array Int Int))) (EQ_6U Int) 
(GT_6W Int) (LT_6S Int) (VV_298 Int) (VV_F48 Int) (cmp (Array Int Int)) 
(ds_dFF Int) (jhala_aEU Int) (jhalas_aEV Int) (lq_anf__dFV Int) 
(lq_anf__dFW Int) 
(realWorld__0f Int)) 
 (=> (and (k_118 EQ_6U GT_6W LT_6S ds_dFF realWorld__0f) (and (k_116 EQ_6U GT_6W LT_6S jhala_aEU lq_anf__dFV realWorld__0f) (and (k_118 EQ_6U GT_6W LT_6S lq_anf__dFV realWorld__0f) (and (k_113 EQ_6U GT_6W LT_6S lq_anf__dFW jhala_aEU realWorld__0f) (and (= (select cmp EQ_6U) EQ_6U) (and (= (select cmp GT_6W) GT_6W) (and (= (select cmp LT_6S) LT_6S) (and (= VV_298 jhalas_aEV) (and (= lq_anf__dFV ds_dFF) (and (= lq_anf__dFV (select (select C_ryA jhala_aEU) jhalas_aEV)) (and (k_116 EQ_6U GT_6W LT_6S VV_F48 lq_anf__dFV realWorld__0f) true))))))))))) (k_85 EQ_6U GT_6W LT_6S VV_F48 VV_298 realWorld__0f)))
)


; cid = 48
(assert (forall ((C_ryA (Array Int (Array Int Int))) (EQ_6U Int) 
(GT_6W Int) (LT_6S Int) (VV_298 Int) (VV_F48 Int) (cmp (Array Int Int)) 
(ds_dFF Int) (jhala_aEU Int) (jhalas_aEV Int) (lq_anf__dFV Int) 
(lq_anf__dFW Int) 
(realWorld__0f Int)) 
 (=> (and (k_118 EQ_6U GT_6W LT_6S ds_dFF realWorld__0f) (and (k_116 EQ_6U GT_6W LT_6S jhala_aEU lq_anf__dFV realWorld__0f) (and (k_118 EQ_6U GT_6W LT_6S lq_anf__dFV realWorld__0f) (and (k_113 EQ_6U GT_6W LT_6S lq_anf__dFW jhala_aEU realWorld__0f) (and (= (select cmp EQ_6U) EQ_6U) (and (= (select cmp GT_6W) GT_6W) (and (= (select cmp LT_6S) LT_6S) (and (= VV_298 jhalas_aEV) (and (= lq_anf__dFV ds_dFF) (and (= lq_anf__dFV (select (select C_ryA jhala_aEU) jhalas_aEV)) (and (k_116 EQ_6U GT_6W LT_6S VV_F48 lq_anf__dFV realWorld__0f) true))))))))))) (k_133 EQ_6U GT_6W LT_6S VV_F48 ds_dFF jhala_aEU jhalas_aEV lq_anf__dFV lq_anf__dFW realWorld__0f)))
)


; cid = 47
(assert (forall ((C_ryA (Array Int (Array Int Int))) (EQ_6U Int) 
(GT_6W Int) (LT_6S Int) (VV_F47 Int) (cmp (Array Int Int)) (ds_dFF Int) 
(jhala_aEU Int) (jhalas_aEV Int) (lq_anf__dFV Int) (lq_anf__dFW Int) 
(realWorld__0f Int)) 
 (=> (and (k_118 EQ_6U GT_6W LT_6S ds_dFF realWorld__0f) (and (k_116 EQ_6U GT_6W LT_6S jhala_aEU lq_anf__dFV realWorld__0f) (and (k_118 EQ_6U GT_6W LT_6S lq_anf__dFV realWorld__0f) (and (k_113 EQ_6U GT_6W LT_6S lq_anf__dFW jhala_aEU realWorld__0f) (and (= (select cmp EQ_6U) EQ_6U) (and (= (select cmp GT_6W) GT_6W) (and (= (select cmp LT_6S) LT_6S) (and (= lq_anf__dFV ds_dFF) (and (= lq_anf__dFV (select (select C_ryA jhala_aEU) jhalas_aEV)) (and (= VV_F47 jhalas_aEV) true)))))))))) (k_87 EQ_6U GT_6W LT_6S VV_F47 realWorld__0f)))
)


; cid = 40
(assert (forall ((EQ_6U Int) (GT_6W Int) (LT_6S Int) 
(VV_289 Int) (VV_F40 Int) (cmp (Array Int Int)) 
(realWorld__0f Int)) 
 (=> (and (k_87 EQ_6U GT_6W LT_6S VV_289 realWorld__0f) (and (= (select cmp EQ_6U) EQ_6U) (and (= (select cmp GT_6W) GT_6W) (and (= (select cmp LT_6S) LT_6S) (and (k_85 EQ_6U GT_6W LT_6S VV_F40 VV_289 realWorld__0f) true))))) (k_116 EQ_6U GT_6W LT_6S VV_F40 VV_289 realWorld__0f)))
)


; cid = 39
(assert (forall ((EQ_6U Int) (GT_6W Int) (LT_6S Int) 
(VV_F39 Int) (cmp (Array Int Int)) 
(realWorld__0f Int)) 
 (=> (and (= (select cmp EQ_6U) EQ_6U) (and (= (select cmp GT_6W) GT_6W) (and (= (select cmp LT_6S) LT_6S) (and (k_87 EQ_6U GT_6W LT_6S VV_F39 realWorld__0f) true)))) (k_118 EQ_6U GT_6W LT_6S VV_F39 realWorld__0f)))
)


; cid = 38
(assert (forall ((EQ_6U Int) (GT_6W Int) (LT_6S Int) 
(VV_F38 Int) (cmp (Array Int Int)) (lq_tmp_x109 Int) 
(realWorld__0f Int)) 
 (=> (and (k_111 EQ_6U GT_6W LT_6S lq_tmp_x109 realWorld__0f) (and (= (select cmp EQ_6U) EQ_6U) (and (= (select cmp GT_6W) GT_6W) (and (= (select cmp LT_6S) LT_6S) (and (k_83 EQ_6U GT_6W LT_6S VV_F38 lq_tmp_x109 realWorld__0f) true))))) (k_113 EQ_6U GT_6W LT_6S VV_F38 lq_tmp_x109 realWorld__0f)))
)


; cid = 37
(assert (forall ((EQ_6U Int) (GT_6W Int) (LT_6S Int) 
(VV_F37 Int) (cmp (Array Int Int)) 
(realWorld__0f Int)) 
 (=> (and (= (select cmp EQ_6U) EQ_6U) (and (= (select cmp GT_6W) GT_6W) (and (= (select cmp LT_6S) LT_6S) (and (k_111 EQ_6U GT_6W LT_6S VV_F37 realWorld__0f) true)))) (k_81 EQ_6U GT_6W LT_6S VV_F37 realWorld__0f)))
)


; cid = 34
(assert (forall ((EQ_6U Int) (GT_6W Int) (LT_6S Int) 
(VV_282 Int) (VV_F34 Int) (cmp (Array Int Int)) 
(realWorld__0f Int)) 
 (=> (and (k_102 EQ_6U GT_6W LT_6S VV_282 realWorld__0f) (and (= (select cmp EQ_6U) EQ_6U) (and (= (select cmp GT_6W) GT_6W) (and (= (select cmp LT_6S) LT_6S) (and (k_100 EQ_6U GT_6W LT_6S VV_282 VV_F34 realWorld__0f) true))))) (k_85 EQ_6U GT_6W LT_6S VV_F34 VV_282 realWorld__0f)))
)


; cid = 34
(assert (forall ((EQ_6U Int) (GT_6W Int) (LT_6S Int) 
(VV_282 Int) (VV_F34 Int) (cmp (Array Int Int)) 
(realWorld__0f Int)) 
 (=> (and (k_102 EQ_6U GT_6W LT_6S VV_282 realWorld__0f) (and (= (select cmp EQ_6U) EQ_6U) (and (= (select cmp GT_6W) GT_6W) (and (= (select cmp LT_6S) LT_6S) (and (k_100 EQ_6U GT_6W LT_6S VV_282 VV_F34 realWorld__0f) true))))) (k_140 EQ_6U GT_6W LT_6S VV_F34 realWorld__0f)))
)


; cid = 33
(assert (forall ((EQ_6U Int) (GT_6W Int) (LT_6S Int) 
(VV_F33 Int) (cmp (Array Int Int)) 
(realWorld__0f Int)) 
 (=> (and (= (select cmp EQ_6U) EQ_6U) (and (= (select cmp GT_6W) GT_6W) (and (= (select cmp LT_6S) LT_6S) (and (k_102 EQ_6U GT_6W LT_6S VV_F33 realWorld__0f) true)))) (k_87 EQ_6U GT_6W LT_6S VV_F33 realWorld__0f)))
)


; cid = 32
(assert (forall ((EQ_6U Int) (GT_6W Int) (LT_6S Int) 
(VV_F32 Int) (cmp (Array Int Int)) (lq_tmp_x79 Int) 
(realWorld__0f Int)) 
 (=> (and (k_140 EQ_6U GT_6W LT_6S lq_tmp_x79 realWorld__0f) (and (k_81 EQ_6U GT_6W LT_6S lq_tmp_x79 realWorld__0f) (and (= (select cmp EQ_6U) EQ_6U) (and (= (select cmp GT_6W) GT_6W) (and (= (select cmp LT_6S) LT_6S) (and (k_97 EQ_6U GT_6W LT_6S VV_F32 lq_tmp_x79 realWorld__0f) true)))))) (k_83 EQ_6U GT_6W LT_6S VV_F32 lq_tmp_x79 realWorld__0f)))
)


; cid = 32
(assert (forall ((EQ_6U Int) (GT_6W Int) (LT_6S Int) 
(VV_F32 Int) (cmp (Array Int Int)) (lq_tmp_x79 Int) 
(realWorld__0f Int)) 
 (=> (and (k_140 EQ_6U GT_6W LT_6S lq_tmp_x79 realWorld__0f) (and (k_81 EQ_6U GT_6W LT_6S lq_tmp_x79 realWorld__0f) (and (= (select cmp EQ_6U) EQ_6U) (and (= (select cmp GT_6W) GT_6W) (and (= (select cmp LT_6S) LT_6S) (and (k_97 EQ_6U GT_6W LT_6S VV_F32 lq_tmp_x79 realWorld__0f) true)))))) (k_142 EQ_6U GT_6W LT_6S VV_F32 realWorld__0f)))
)


; cid = 31
(assert (forall ((EQ_6U Int) (GT_6W Int) (LT_6S Int) 
(VV_F31 Int) (cmp (Array Int Int)) 
(realWorld__0f Int)) 
 (=> (and (= (select cmp EQ_6U) EQ_6U) (and (= (select cmp GT_6W) GT_6W) (and (= (select cmp LT_6S) LT_6S) (and (k_140 EQ_6U GT_6W LT_6S VV_F31 realWorld__0f) (and (k_81 EQ_6U GT_6W LT_6S VV_F31 realWorld__0f) true))))) (k_95 EQ_6U GT_6W LT_6S VV_F31 realWorld__0f)))
)


; cid = 28
(assert (forall ((EQ_6U Int) (GT_6W Int) (LT_6S Int) 
(VV_275 Int) (VV_F28 Int) (cmp (Array Int Int)) 
(realWorld__0f Int)) 
 (=> (and (k_74 EQ_6U GT_6W LT_6S VV_275 realWorld__0f) (and (= (select cmp EQ_6U) EQ_6U) (and (= (select cmp GT_6W) GT_6W) (and (= (select cmp LT_6S) LT_6S) (and (k_72 EQ_6U GT_6W LT_6S VV_F28 VV_275 realWorld__0f) true))))) (k_100 EQ_6U GT_6W LT_6S VV_275 VV_F28 realWorld__0f)))
)


; cid = 27
(assert (forall ((EQ_6U Int) (GT_6W Int) (LT_6S Int) 
(VV_F27 Int) (cmp (Array Int Int)) 
(realWorld__0f Int)) 
 (=> (and (= (select cmp EQ_6U) EQ_6U) (and (= (select cmp GT_6W) GT_6W) (and (= (select cmp LT_6S) LT_6S) (and (k_74 EQ_6U GT_6W LT_6S VV_F27 realWorld__0f) true)))) (k_102 EQ_6U GT_6W LT_6S VV_F27 realWorld__0f)))
)


; cid = 26
(assert (forall ((EQ_6U Int) (GT_6W Int) (LT_6S Int) 
(VV_F26 Int) (cmp (Array Int Int)) (lq_tmp_x93 Int) 
(realWorld__0f Int)) 
 (=> (and (k_95 EQ_6U GT_6W LT_6S lq_tmp_x93 realWorld__0f) (and (= (select cmp EQ_6U) EQ_6U) (and (= (select cmp GT_6W) GT_6W) (and (= (select cmp LT_6S) LT_6S) (and (k_69 EQ_6U GT_6W LT_6S VV_F26 lq_tmp_x93 realWorld__0f) true))))) (k_97 EQ_6U GT_6W LT_6S VV_F26 lq_tmp_x93 realWorld__0f)))
)


; cid = 25
(assert (forall ((EQ_6U Int) (GT_6W Int) (LT_6S Int) 
(VV_F25 Int) (cmp (Array Int Int)) 
(realWorld__0f Int)) 
 (=> (and (= (select cmp EQ_6U) EQ_6U) (and (= (select cmp GT_6W) GT_6W) (and (= (select cmp LT_6S) LT_6S) (and (k_95 EQ_6U GT_6W LT_6S VV_F25 realWorld__0f) true)))) (k_67 EQ_6U GT_6W LT_6S VV_F25 realWorld__0f)))
)


; cid = 12
(assert (forall ((EQ_6U Int) (GT_6W Int) (LT_6S Int) 
(Prop (Array Int Bool)) (VV_F12 Int) (cmp (Array Int Int)) (lq_anf__dG2 Int) 
(lq_tmp_x12 Int) (n_aEY Int) 
(realWorld__0f Int)) 
 (=> (and (k_209 EQ_6U GT_6W LT_6S lq_tmp_x12 lq_anf__dG2 n_aEY realWorld__0f) (and (k_198 EQ_6U GT_6W LT_6S n_aEY realWorld__0f) (and (= (select cmp EQ_6U) EQ_6U) (and (= (select cmp GT_6W) GT_6W) (and (= (select cmp LT_6S) LT_6S) (and (= lq_anf__dG2 0) (and (select Prop VV_F12) true))))))) (k_211 EQ_6U GT_6W LT_6S VV_F12 lq_anf__dG2 n_aEY realWorld__0f)))
)


; cid = 11
(assert (forall ((EQ_6U Int) (GT_6W Int) (LT_6S Int) 
(Prop (Array Int Bool)) (VV_F11 Int) (cmp (Array Int Int)) (lq_anf__dG2 Int) 
(n_aEY Int) 
(realWorld__0f Int)) 
 (=> (and (not (select Prop VV_F11)) (and (k_198 EQ_6U GT_6W LT_6S n_aEY realWorld__0f) (and (= (select cmp EQ_6U) EQ_6U) (and (= (select cmp GT_6W) GT_6W) (and (= (select cmp LT_6S) LT_6S) (and (= lq_anf__dG2 0) (and (k_209 EQ_6U GT_6W LT_6S VV_F11 lq_anf__dG2 n_aEY realWorld__0f) true))))))) false))
)


; cid = 10
(assert (forall ((EQ_6U Int) (GT_6W Int) (LT_6S Int) 
(Prop (Array Int Bool)) (VV_F10 Int) (cmp (Array Int Int)) (lq_anf__dG2 Int) 
(lq_tmp_x14 Int) (n_aEY Int) 
(realWorld__0f Int)) 
 (=> (and (k_213 EQ_6U GT_6W LT_6S lq_tmp_x14 lq_anf__dG2 n_aEY realWorld__0f) (and (k_198 EQ_6U GT_6W LT_6S n_aEY realWorld__0f) (and (= (select cmp EQ_6U) EQ_6U) (and (= (select cmp GT_6W) GT_6W) (and (= (select cmp LT_6S) LT_6S) (and (= lq_anf__dG2 0) (and (= (select Prop VV_F10) (<= lq_anf__dG2 lq_tmp_x14)) true))))))) (k_209 EQ_6U GT_6W LT_6S VV_F10 lq_anf__dG2 n_aEY realWorld__0f)))
)


; cid = 8
(assert (forall ((EQ_6U Int) (GT_6W Int) (LT_6S Int) (VV_F8 Int) 
(cmp (Array Int Int)) (lq_anf__dG2 Int) (lq_anf__dG5 Int) (n_aEY Int) 
(realWorld__0f Int)) 
 (=> (and (k_198 EQ_6U GT_6W LT_6S n_aEY realWorld__0f) (and (= (select cmp EQ_6U) EQ_6U) (and (= (select cmp GT_6W) GT_6W) (and (= (select cmp LT_6S) LT_6S) (and (= lq_anf__dG2 0) (and (= lq_anf__dG5 0) (and (= VV_F8 0) (and (= VV_F8 lq_anf__dG5) true)))))))) (k_49 EQ_6U GT_6W LT_6S VV_F8 realWorld__0f)))
)


; cid = 7
(assert (forall ((EQ_6U Int) (GT_6W Int) (LT_6S Int) (VV_F7 Int) 
(cmp (Array Int Int)) (lq_anf__dG2 Int) (lq_anf__dG5 Int) (n_aEY Int) 
(realWorld__0f Int)) 
 (=> (and (k_198 EQ_6U GT_6W LT_6S n_aEY realWorld__0f) (and (= (select cmp EQ_6U) EQ_6U) (and (= (select cmp GT_6W) GT_6W) (and (= (select cmp LT_6S) LT_6S) (and (= lq_anf__dG2 0) (and (= lq_anf__dG5 0) (and (k_198 EQ_6U GT_6W LT_6S VV_F7 realWorld__0f) (and (= VV_F7 n_aEY) true)))))))) (k_52 EQ_6U GT_6W LT_6S VV_F7 lq_anf__dG5 realWorld__0f)))
)


; cid = 6
(assert (forall ((EQ_6U Int) (GT_6W Int) (LT_6S Int) (VV_F6 Int) 
(cmp (Array Int Int)) (lq_anf__dG2 Int) (lq_anf__dG5 Int) (lq_anf__dG6 Int) 
(lq_tmp_x65 Int) (n_aEY Int) 
(realWorld__0f Int)) 
 (=> (and (k_57 EQ_6U GT_6W LT_6S lq_anf__dG6 lq_anf__dG5 n_aEY realWorld__0f) (and (k_218 EQ_6U GT_6W LT_6S lq_tmp_x65 lq_anf__dG2 lq_anf__dG5 lq_anf__dG6 n_aEY realWorld__0f) (and (k_67 EQ_6U GT_6W LT_6S lq_tmp_x65 realWorld__0f) (and (k_198 EQ_6U GT_6W LT_6S n_aEY realWorld__0f) (and (= (select cmp EQ_6U) EQ_6U) (and (= (select cmp GT_6W) GT_6W) (and (= (select cmp LT_6S) LT_6S) (and (= lq_anf__dG2 0) (and (= lq_anf__dG5 0) (and (k_211 EQ_6U GT_6W LT_6S VV_F6 lq_anf__dG2 n_aEY realWorld__0f) true)))))))))) (k_69 EQ_6U GT_6W LT_6S VV_F6 lq_tmp_x65 realWorld__0f)))
)


; cid = 6
(assert (forall ((EQ_6U Int) (GT_6W Int) (LT_6S Int) (VV_F6 Int) 
(cmp (Array Int Int)) (lq_anf__dG2 Int) (lq_anf__dG5 Int) (lq_anf__dG6 Int) 
(lq_tmp_x65 Int) (n_aEY Int) 
(realWorld__0f Int)) 
 (=> (and (k_57 EQ_6U GT_6W LT_6S lq_anf__dG6 lq_anf__dG5 n_aEY realWorld__0f) (and (k_218 EQ_6U GT_6W LT_6S lq_tmp_x65 lq_anf__dG2 lq_anf__dG5 lq_anf__dG6 n_aEY realWorld__0f) (and (k_67 EQ_6U GT_6W LT_6S lq_tmp_x65 realWorld__0f) (and (k_198 EQ_6U GT_6W LT_6S n_aEY realWorld__0f) (and (= (select cmp EQ_6U) EQ_6U) (and (= (select cmp GT_6W) GT_6W) (and (= (select cmp LT_6S) LT_6S) (and (= lq_anf__dG2 0) (and (= lq_anf__dG5 0) (and (k_211 EQ_6U GT_6W LT_6S VV_F6 lq_anf__dG2 n_aEY realWorld__0f) true)))))))))) (k_220 EQ_6U GT_6W LT_6S VV_F6 lq_anf__dG2 lq_anf__dG5 lq_anf__dG6 n_aEY realWorld__0f)))
)


; cid = 5
(assert (forall ((EQ_6U Int) (GT_6W Int) (LT_6S Int) (VV_F5 Int) 
(cmp (Array Int Int)) (lq_anf__dG2 Int) (lq_anf__dG5 Int) (lq_anf__dG6 Int) 
(n_aEY Int) 
(realWorld__0f Int)) 
 (=> (and (k_57 EQ_6U GT_6W LT_6S lq_anf__dG6 lq_anf__dG5 n_aEY realWorld__0f) (and (k_198 EQ_6U GT_6W LT_6S n_aEY realWorld__0f) (and (= (select cmp EQ_6U) EQ_6U) (and (= (select cmp GT_6W) GT_6W) (and (= (select cmp LT_6S) LT_6S) (and (= lq_anf__dG2 0) (and (= lq_anf__dG5 0) (and (k_218 EQ_6U GT_6W LT_6S VV_F5 lq_anf__dG2 lq_anf__dG5 lq_anf__dG6 n_aEY realWorld__0f) (and (k_67 EQ_6U GT_6W LT_6S VV_F5 realWorld__0f) true))))))))) (k_213 EQ_6U GT_6W LT_6S VV_F5 lq_anf__dG2 n_aEY realWorld__0f)))
)


; cid = 4
(assert (forall ((EQ_6U Int) (GT_6W Int) (LT_6S Int) (VV_226 Int) 
(VV_F4 Int) (cmp (Array Int Int)) (lq_anf__dG2 Int) (lq_anf__dG5 Int) 
(lq_anf__dG6 Int) (n_aEY Int) 
(realWorld__0f Int)) 
 (=> (and (k_57 EQ_6U GT_6W LT_6S VV_226 lq_anf__dG5 n_aEY realWorld__0f) (and (k_57 EQ_6U GT_6W LT_6S lq_anf__dG6 lq_anf__dG5 n_aEY realWorld__0f) (and (k_198 EQ_6U GT_6W LT_6S n_aEY realWorld__0f) (and (= (select cmp EQ_6U) EQ_6U) (and (= (select cmp GT_6W) GT_6W) (and (= (select cmp LT_6S) LT_6S) (and (= VV_226 lq_anf__dG6) (and (= lq_anf__dG2 0) (and (= lq_anf__dG5 0) (and (k_55 EQ_6U GT_6W LT_6S VV_F4 VV_226 lq_anf__dG5 n_aEY realWorld__0f) true)))))))))) (k_72 EQ_6U GT_6W LT_6S VV_F4 VV_226 realWorld__0f)))
)


; cid = 4
(assert (forall ((EQ_6U Int) (GT_6W Int) (LT_6S Int) (VV_226 Int) 
(VV_F4 Int) (cmp (Array Int Int)) (lq_anf__dG2 Int) (lq_anf__dG5 Int) 
(lq_anf__dG6 Int) (n_aEY Int) 
(realWorld__0f Int)) 
 (=> (and (k_57 EQ_6U GT_6W LT_6S VV_226 lq_anf__dG5 n_aEY realWorld__0f) (and (k_57 EQ_6U GT_6W LT_6S lq_anf__dG6 lq_anf__dG5 n_aEY realWorld__0f) (and (k_198 EQ_6U GT_6W LT_6S n_aEY realWorld__0f) (and (= (select cmp EQ_6U) EQ_6U) (and (= (select cmp GT_6W) GT_6W) (and (= (select cmp LT_6S) LT_6S) (and (= VV_226 lq_anf__dG6) (and (= lq_anf__dG2 0) (and (= lq_anf__dG5 0) (and (k_55 EQ_6U GT_6W LT_6S VV_F4 VV_226 lq_anf__dG5 n_aEY realWorld__0f) true)))))))))) (k_218 EQ_6U GT_6W LT_6S VV_F4 lq_anf__dG2 lq_anf__dG5 lq_anf__dG6 n_aEY realWorld__0f)))
)


; cid = 3
(assert (forall ((EQ_6U Int) (GT_6W Int) (LT_6S Int) (VV_F3 Int) 
(cmp (Array Int Int)) (lq_anf__dG2 Int) (lq_anf__dG5 Int) (lq_anf__dG6 Int) 
(n_aEY Int) 
(realWorld__0f Int)) 
 (=> (and (k_57 EQ_6U GT_6W LT_6S lq_anf__dG6 lq_anf__dG5 n_aEY realWorld__0f) (and (k_198 EQ_6U GT_6W LT_6S n_aEY realWorld__0f) (and (= (select cmp EQ_6U) EQ_6U) (and (= (select cmp GT_6W) GT_6W) (and (= (select cmp LT_6S) LT_6S) (and (= lq_anf__dG2 0) (and (= lq_anf__dG5 0) (and (k_57 EQ_6U GT_6W LT_6S VV_F3 lq_anf__dG5 n_aEY realWorld__0f) (and (= VV_F3 lq_anf__dG6) true))))))))) (k_74 EQ_6U GT_6W LT_6S VV_F3 realWorld__0f)))
)
